31 63 90 10 
28 12 29 76 3 68 77 
27 69 30 62 88 7 18 
52 82 8 84 17 91 100 93 60 89 
2 57 87 37 97 13 
42 15 43 74 58 
21 73 40 53 
72 39 67 23 75 22 41 56 4 54 55 25 24 80 
95 59 92 98 14 38 44 16 61 86 85 99 94 26 50 20 66 32 70 
33 65 71 9 51 81 79 78 34 35 1 
6 96 
5 83 45 36 47 19 11 64 49 46 48 
